# ============================================
# basemodel.dat -- Example from Abdulkader et al. (2018)
# ============================================

# -----------------------------
# SETS
# -----------------------------

set K := k1 k2 ;      # two vehicles
set P := 1 2 3 ;      # three products
set N := 1 2 3 4 5 6 7 8 9 ;
set R := 1 2 3 ;
set C := 4 5 6 7 8 9 ;

param Q := 100 ;
param L := 10000 ;    # large enough


# -----------------------------
# DEMAND FROM DEPOT → STORES (D[i])
# -----------------------------

param D :=
  1 37
  2 42
  3 28
  4 0
  5 0
  6 0
  7 0
  8 0
  9 0 ;


# -----------------------------
# ONLINE DEMAND d[p,j]
# (simple 0/1 indicator of which product each consumer orders)
# -----------------------------

param d :=
  1 4   0
  2 4   0
  3 4   1

  1 5   0
  2 5   1
  3 5   0

  1 6   0
  2 6   1
  3 6   0

  1 7   1
  2 7   0
  3 7   0

  1 8   1
  2 8   0
  3 8   0

  1 9   0
  2 9   1
  3 9   0 ;


# -----------------------------
# INVENTORY I[p,i] FOR STORES
# -----------------------------

param I :=
  1 1 2
  2 1 1
  3 1 0

  1 2 0
  2 2 2
  3 2 0

  1 3 2
  2 3 0
  3 3 1 ;


# -----------------------------
# DISTANCE MATRIX Cdist[i,j]
# -----------------------------

param Cdist:
        0       1       2       3       4       5       6       7       8       9 :=
 0      0     57.14   78.18   45.00   44.72   87.00   60.21   73.24   55.01   53.01
 1    57.14     0     37.21   21.02    6.08   81.10   23.77   13.00   70.82   78.40
 2    78.18   37.21     0     57.71   41.23   92.54   16.55   43.46   67.86   75.10
 3    45.00   21.02   57.71     0     15.13   98.96   31.24   15.00   77.84   87.09
 4    44.72    6.08   41.23   15.13     0     81.99   22.47   10.00   74.73   83.85
 5    87.00   81.10   92.54   98.96   81.99     0     60.53   82.62   40.31   36.12
 6    60.21   23.77   16.55   31.24   22.47   60.53     0     36.40   51.11   57.01
 7    73.24   13.00   43.46   15.00   10.00   82.62   36.40     0     84.20   93.35
 8    55.01   70.82   67.86   77.84   74.73   40.31   51.11   84.20     0      7.62
 9    53.01   78.40   75.10   87.09   83.85   36.12   57.01   93.35    7.62     0 ;


# -----------------------------
# TRAVEL TIME = DISTANCE
# -----------------------------

param Ttime:
        0       1       2       3       4       5       6       7       8       9 :=
 0      0     57.14   78.18   45.00   44.72   87.00   60.21   73.24   55.01   53.01
 1    57.14     0     37.21   21.02    6.08   81.10   23.77   13.00   70.82   78.40
 2    78.18   37.21     0     57.71   41.23   92.54   16.55   43.46   67.86   75.10
 3    45.00   21.02   57.71     0     15.13   98.96   31.24   15.00   77.84   87.09
 4    44.72    6.08   41.23   15.13     0     81.99   22.47   10.00   74.73   83.85
 5    87.00   81.10   92.54   98.96   81.99     0     60.53   82.62   40.31   36.12
 6    60.21   23.77   16.55   31.24   22.47   60.53     0     36.40   51.11   57.01
 7    73.24   13.00   43.46   15.00   10.00   82.62   36.40     0     84.20   93.35
 8    55.01   70.82   67.86   77.84   74.73   40.31   51.11   84.20     0      7.62
 9    53.01   78.40   75.10   87.09   83.85   36.12   57.01   93.35    7.62     0 ;


# -----------------------------
# SERVICE TIME (no service time)
# -----------------------------

param O :=
  0 0
  1 0
  2 0
  3 0
  4 0
  5 0
  6 0
  7 0
  8 0
  9 0 ;
